analyze/results_flowersnark/final_miplib_symretope_if_extended_generating_set_cpx_v802__settings_final_nosym_norestarts__1__mspp16.mps.gz.out
FILENAME:   /home/mcs001/s132664/testsets/IP/miplib2010/mspp16.mps.gz
SETTINGS:   settings_final_nosym_norestarts
TIMELIMIT:  7200
OUTPUTNAME: final_miplib_symretope_if_extended_generating_set_cpx_v802__settings_final_nosym_norestarts__1__
BINNAME:    bin/sbcs.linux.x86_64.gnu.opt.cpx
BASENAME:   mspp16.mps.gz
SEED:       1
@01 /home/mcs001/s132664/testsets/IP/miplib2010/mspp16.mps.gz ===========
@02 mspp16.mps.gz
@03 1686649339
SCIP version 8.0.2 [precision: 8 byte] [memory: block] [mode: optimized] [LP solver: CPLEX 20.1.0.0] [GitHash: 5f0473c]
Copyright (C) 2002-2022 Konrad-Zuse-Zentrum fuer Informationstechnik Berlin (ZIB)

Symretope propagation methods - (c) Jasper van Doornmalen, Christopher Hojny.
[GitHash: 2fd0484]

reading parameter file <../settings/settings_final_nosym_norestarts.set> ...

Changed settings:
limits/time = 7200
limits/restarts = 0
misc/usesymmetry = 0
randomization/randomseedshift = 1
constraints/orbisack/sepafreq = -1
constraints/symresack/sepafreq = -1
propagating/symmetry/detectsubgroups = FALSE
propagating/symmetry/usesymretopes = FALSE
propagating/symmetry/relabelsymretopes = 0
propagating/symmetry/ofsymcomptiming = 0
constraints/symretope/sepafreq = -1
constraints/symretope/peek = FALSE


solving problem ...

original problem has 29280 variables (29280 bin, 0 int, 0 impl, 0 cont) and 561657 constraints
presolving:
(round 1, fast)       25215 del vars, 36781 del conss, 0 add conss, 25215 chg bounds, 991 chg sides, 0 chg coeffs, 0 upgd conss, 0 impls, 1726 clqs
(round 2, exhaustive) 25215 del vars, 36843 del conss, 0 add conss, 25215 chg bounds, 991 chg sides, 0 chg coeffs, 524798 upgd conss, 0 impls, 1726 clqs
(round 3, medium)     25215 del vars, 37053 del conss, 210 add conss, 25215 chg bounds, 1201 chg sides, 3360 chg coeffs, 524798 upgd conss, 0 impls, 1935 clqs
   (49.6s) sparsify aborted: 480/27555495 (0.0%) nonzeros canceled - in total 480 canceled nonzeros, 480 changed coefficients, 0 added nonzeros
   (62.9s) probing: 51/4065 (1.3%) - 0 fixings, 0 aggregations, 0 implications, 0 bound changes
   (62.9s) probing aborted: 50/50 successive totally useless probings
presolving (4 rounds: 4 fast, 3 medium, 2 exhaustive):
 25215 deleted vars, 37053 deleted constraints, 210 added constraints, 25215 tightened bounds, 0 added holes, 1201 changed sides, 4080 changed coefficients
 0 implications, 1935 cliques
presolved problem has 4065 variables (4065 bin, 0 int, 0 impl, 0 cont) and 524814 constraints
 522862 constraints of type <knapsack>
   1936 constraints of type <setppc>
     16 constraints of type <linear>
transformed objective value is always integral (scale: 11)
Presolving Time: 64.43

 time | node  | left  |LP iter|LP it/n|mem/heur|mdpt |vars |cons |rows |cuts |sepa|confs|strbr|  dualbound   | primalbound  |  gap   | compl. 
  201s|     1 |     0 |     2 |     - |  8496M |   0 |4065 | 524k| 524k|   0 |  0 |  67 |   0 | 3.410000e+02 |      --      |    Inf | unknown
r 202s|     1 |     0 |     2 |     - |shifting|   0 |4065 | 524k| 524k|   0 |  0 |  67 |   0 | 3.410000e+02 | 3.740000e+02 |   9.68%| unknown
  205s|     1 |     0 |    13 |     - |  8555M |   0 |4065 | 524k| 524k|   4 |  1 |  67 |   0 | 3.410000e+02 | 3.740000e+02 |   9.68%| unknown
  210s|     1 |     0 |    42 |     - |  8612M |   0 |4065 | 524k| 524k|  10 |  2 |  67 |   0 | 3.410000e+02 | 3.740000e+02 |   9.68%| unknown
  214s|     1 |     0 |    67 |     - |  8668M |   0 |4065 | 524k| 524k|  15 |  3 |  67 |   0 | 3.410000e+02 | 3.740000e+02 |   9.68%| unknown
  220s|     1 |     0 |    89 |     - |  8725M |   0 |4065 | 524k| 524k|  21 |  4 |  67 |   0 | 3.410000e+02 | 3.740000e+02 |   9.68%| unknown
  225s|     1 |     0 |   114 |     - |  8782M |   0 |4065 | 524k| 524k|  27 |  5 |  67 |   0 | 3.410000e+02 | 3.740000e+02 |   9.68%| unknown
  231s|     1 |     0 |   134 |     - |  8838M |   0 |4065 | 524k| 524k|  33 |  6 |  67 |   0 | 3.410000e+02 | 3.740000e+02 |   9.68%| unknown
r 232s|     1 |     0 |   134 |     - |shifting|   0 |4065 | 524k| 524k|  33 |  6 |  67 |   0 | 3.410000e+02 | 3.630000e+02 |   6.45%| unknown
  236s|     1 |     0 |   168 |     - |  8895M |   0 |4065 | 524k| 524k|  41 |  7 |  67 |   0 | 3.410000e+02 | 3.630000e+02 |   6.45%| unknown
  242s|     1 |     0 |   231 |     - |  8952M |   0 |4065 | 524k| 524k|  49 |  8 |  67 |   0 | 3.410000e+02 | 3.630000e+02 |   6.45%| unknown
  247s|     1 |     0 |   265 |     - |  9006M |   0 |4065 | 524k| 524k|  57 |  9 |  67 |   0 | 3.410000e+02 | 3.630000e+02 |   6.45%| unknown
  253s|     1 |     0 |   307 |     - |  9063M |   0 |4065 | 524k| 524k|  66 | 10 |  67 |   0 | 3.410000e+02 | 3.630000e+02 |   6.45%| unknown
  264s|     1 |     0 |   342 |     - |  9120M |   0 |4065 | 524k| 524k|  74 | 11 |  67 |   0 | 3.410000e+02 | 3.630000e+02 |   6.45%| unknown
  383s|     1 |     2 |   353 |     - |  9130M |   0 |4065 | 524k| 524k|  74 | 11 |  68 |  20 | 3.410000e+02 | 3.630000e+02 |   6.45%| unknown
 time | node  | left  |LP iter|LP it/n|mem/heur|mdpt |vars |cons |rows |cuts |sepa|confs|strbr|  dualbound   | primalbound  |  gap   | compl. 
r2154s|    24 |     3 |  2696 | 102.3 |shifting|  10 |4065 | 526k| 524k|  87 |  7 |1242 |1157 | 3.410000e+02 | 3.630000e+02 |   6.45%|   9.10%
r2304s|    24 |     3 |  3033 | 117.0 |shifting|  10 |4065 | 526k| 524k| 113 | 28 |1331 |1270 | 3.410000e+02 | 3.630000e+02 |   6.45%|   9.10%
r2306s|    24 |     3 |  3034 | 117.0 |shifting|  10 |4065 | 526k| 524k| 113 | 29 |1332 |1271 | 3.410000e+02 | 3.630000e+02 |   6.45%|   9.10%
r2310s|    24 |     3 |  3036 | 117.1 |shifting|  10 |4065 | 526k| 524k| 113 | 30 |1333 |1272 | 3.410000e+02 | 3.630000e+02*|   6.45%|   9.10%

SCIP Status        : problem is solved [optimal solution found]
Solving Time (sec) : 4428.42
Solving Nodes      : 73
Primal Bound       : +3.63000000000000e+02 (63 solutions)
Dual Bound         : +3.63000000000000e+02
Gap                : 0.00 %
SCIP Status        : problem is solved [optimal solution found]
Total Time         :    4460.68
  solving          :    4428.42
  presolving       :      64.43 (included in solving)
  reading          :      32.25
  copying          :       4.40 (2 #copies) (minimal 2.14, maximal 2.25, average 2.20)
Original Problem   :
  Problem name     : mspp16
  Variables        : 29280 (29280 binary, 0 integer, 0 implicit integer, 0 continuous)
  Constraints      : 561657 initial, 561657 maximal
  Objective        : minimize, 4065 non-zeros (abs.min = 11, abs.max = 11)
Presolved Problem  :
  Problem name     : t_mspp16
  Variables        : 4065 (4065 binary, 0 integer, 0 implicit integer, 0 continuous)
  Constraints      : 524814 initial, 527790 maximal
  Objective        : minimize, 3585 non-zeros (abs.min = 1, abs.max = 1)
  Nonzeros         : 27555015 constraint, 14308 clique table
Presolvers         :   ExecTime  SetupTime  Calls  FixedVars   AggrVars   ChgTypes  ChgBounds   AddHoles    DelCons    AddCons   ChgSides   ChgCoefs
  boundshift       :       0.00       0.00      0          0          0          0          0          0          0          0          0          0
  convertinttobin  :       0.00       0.00      0          0          0          0          0          0          0          0          0          0
  domcol           :       2.57       0.00      1          0          0          0          0          0          0          0          0          0
  dualagg          :       0.00       0.00      0          0          0          0          0          0          0          0          0          0
  dualcomp         :       0.00       0.00      0          0          0          0          0          0          0          0          0          0
  dualinfer        :       0.00       0.00      0          0          0          0          0          0          0          0          0          0
  dualsparsify     :       5.41       0.00      1          0          0          0          0          0          0          0          0          0
  gateextraction   :       0.00       0.00      0          0          0          0          0          0          0          0          0          0
  implics          :       0.00       0.00      3          0          0          0          0          0          0          0          0          0
  inttobinary      :       0.00       0.00      0          0          0          0          0          0          0          0          0          0
  qpkktref         :       0.00       0.00      0          0          0          0          0          0          0          0          0          0
  redvub           :       0.00       0.00      0          0          0          0          0          0          0          0          0          0
  sparsify         :       4.20       0.00      1          0          0          0          0          0          0          0          0        480
  stuffing         :       0.00       0.00      0          0          0          0          0          0          0          0          0          0
  trivial          :       0.00       0.00      4          0          0          0          0          0          0          0          0          0
  tworowbnd        :       0.00       0.00      0          0          0          0          0          0          0          0          0          0
  dualfix          :       0.00       0.00      4          0          0          0          0          0          0          0          0          0
  genvbounds       :       0.00       0.00      0          0          0          0          0          0          0          0          0          0
  probing          :      13.33       0.00      1          0          0          0          0          0          0          0          0          0
  pseudoobj        :       0.00       0.00      0          0          0          0          0          0          0          0          0          0
  symmetry         :       0.00       0.00      0          0          0          0          0          0          0          0          0          0
  vbounds          :       0.00       0.00      2          0          0          0          0          0          0          0          0          0
  knapsack         :      21.68       0.24      5          0          0          0          0          0        210        210        210       3600
  setppc           :       0.01       0.00      5          0          0          0          0          0          0          0          0          0
  linear           :      12.23       4.59      6      25215          0          0      25215          0      36843          0        991          0
  logicor          :       0.00       0.00      0          0          0          0          0          0          0          0          0          0
  benders          :       0.00       0.00      0          0          0          0          0          0          0          0          0          0
  components       :       2.20       0.00      1          0          0          0          0          0          0          0          0          0
  root node        :          -          -      -       4023          -          -       4023          -          -          -          -          -
Constraints        :     Number  MaxNumber  #Separate #Propagate    #EnfoLP    #EnfoRelax  #EnfoPS    #Check   #ResProp    Cutoffs    DomReds       Cuts    Applied      Conss   Children
  benderslp        :          0          0          0          0        667          0          0         83          0          0          0          0          0          0          0
  integral         :          0          0          0          0        667          0          0         83          0          1       2311          0          0       2940         72
  knapsack         :     522862     522862         11      15717          0          0          0         78      11210         83      12541        148          6          0          0
  setppc           :       1936+      3707         11      15634          0          0          0         65       5121         60       4293          0          0          0          0
  linear           :         16         16         11      14674          0          0          0         63         12         39         48          0          0          0          0
  logicor          :          0+      1205         11       3420          0          0          0          0       2417         36        391          0          0          0          0
  benders          :          0          0          0          0          0          0          0         64          0          0          0          0          0          0          0
  countsols        :          0          0          0          0          0          0          0         64          0          0          0          0          0          0          0
  components       :          0          0          0          0          0          0          0          0          0          0          0          0          0          0          0
Constraint Timings :  TotalTime  SetupTime   Separate  Propagate     EnfoLP     EnfoPS     EnfoRelax   Check    ResProp    SB-Prop
  benderslp        :       0.00       0.00       0.00       0.00       0.00       0.00       0.00       0.00       0.00       0.00
  integral         :    3401.83       0.00       0.00       0.00    3401.82       0.00       0.00       0.01       0.00       0.00
  knapsack         :     252.94       0.24      10.76      92.56       0.00       0.00       0.00      30.39       0.02     118.97
  setppc           :      61.46       0.00       0.00      22.17       0.00       0.00       0.00       0.04       0.00      39.24
  linear           :       4.98       4.59       0.00       0.18       0.00       0.00       0.00       0.02       0.00       0.20
  logicor          :       6.31       0.00       0.00       1.19       0.00       0.00       0.00       0.00       0.00       5.12
  benders          :       0.00       0.00       0.00       0.00       0.00       0.00       0.00       0.00       0.00       0.00
  countsols        :       0.00       0.00       0.00       0.00       0.00       0.00       0.00       0.00       0.00       0.00
  components       :       0.00       0.00       0.00       0.00       0.00       0.00       0.00       0.00       0.00       0.00
Propagators        : #Propagate   #ResProp    Cutoffs    DomReds
  dualfix          :          1          0          0          0
  genvbounds       :          0          0          0          0
  nlobbt           :          0          0          0          0
  obbt             :          0          0          0          0
  probing          :          0          0          0          0
  pseudoobj        :       1729         88          0       1033
  redcost          :       1413          0          0      58452
  rootredcost      :          1          0          0          0
  symmetry         :          0          0          0          0
  vbounds          :       3096          0          0          0
Propagator Timings :  TotalTime  SetupTime   Presolve  Propagate    ResProp    SB-Prop
  dualfix          :       0.00       0.00       0.00       0.00       0.00       0.00
  genvbounds       :       0.01       0.00       0.00       0.00       0.00       0.00
  nlobbt           :       0.00       0.00       0.00       0.00       0.00       0.00
  obbt             :       0.00       0.00       0.00       0.00       0.00       0.00
  probing          :      13.33       0.00      13.33       0.00       0.00       0.00
  pseudoobj        :       2.92       0.00       0.00       2.91       0.01       0.00
  redcost          :     162.78       0.00       0.00     162.78       0.00       0.00
  rootredcost      :       0.01       0.00       0.00       0.00       0.00       0.00
  symmetry         :       0.00       0.00       0.00       0.00       0.00       0.00
  vbounds          :       0.03       0.00       0.00       0.02       0.00       0.01
Conflict Analysis  :       Time      Calls    Success    DomReds  Conflicts   Literals    Reconvs ReconvLits   Dualrays   Nonzeros   LP Iters   (pool size: [10000,10000])
  propagation      :       0.03        177        156          -        382       66.9         12        7.1          -          -          -
  infeasible LP    :       0.06         12         12          -         53      181.4          0        0.0          0        0.0          0
  bound exceed. LP :    1358.15       2058       2057          -       3102       18.0          9       20.7          9       24.4       6221
  strong branching :       0.00          0          0          -          0        0.0          0        0.0          -          -          0
  pseudo solution  :       0.00          0          0          -          0        0.0          0        0.0          -          -          -
  applied globally :       0.14          -          -          0       3124       14.4          -          -          9          -          -
  applied locally  :          -          -          -          0          0        0.0          -          -          0          -          -
Separators         :   ExecTime  SetupTime      Calls  RootCalls    Cutoffs    DomReds  FoundCuts ViaPoolAdd  DirectAdd    Applied ViaPoolApp  DirectApp      Conss
  cut pool         :       0.04          -         75         21          -          -        960        737          -          -          -          -          -    (maximal pool size:        960)
  aggregation      :       7.16       0.00         51         11          0          0        151        227          0        102        102          0          0
  > cmir           :          -          -          -          -          -          -          -         95          0         46         46          0          -
  > flowcover      :          -          -          -          -          -          -          -         48          0          2          2          0          -
  > knapsackcover  :          -          -          -          -          -          -          -         84          0         54         54          0          -
  cgmip            :       0.00       0.00          0          0          0          0          0          0          0          0          0          0          0
  clique           :       0.02       0.00         11         11          0          0          0          0          0          0          0          0          0
  closecuts        :       0.00       0.00          0          0          0          0          0          0          0          0          0          0          0
  convexproj       :       0.00       0.00          0          0          0          0          0          0          0          0          0          0          0
  disjunctive      :       0.00       0.00          0          0          0          0          0          0          0          0          0          0          0
  eccuts           :       0.00       0.00          0          0          0          0          0          0          0          0          0          0          0
  gauge            :       0.00       0.00          0          0          0          0          0          0          0          0          0          0          0
  gomory           :       4.65       0.00         18         10          0          0        789        494          0         17         17          0          0
  > gomorymi       :          -          -          -          -          -          -          -        385          0          6          6          0          -
  > strongcg       :          -          -          -          -          -          -          -        109          0         11         11          0          -
  impliedbounds    :       0.63       0.00         51         11          0          0          0          0          0          0          0          0          0
  interminor       :       0.00       0.00          0          0          0          0          0          0          0          0          0          0          0
  intobj           :       0.00       0.00          0          0          0          0          0          0          0          0          0          0          0
  mcf              :       0.00       0.00          0          0          0          0          0          0          0          0          0          0          0
  minor            :       0.00       0.00          0          0          0          0          0          0          0          0          0          0          0
  mixing           :       0.00       0.00          0          0          0          0          0          0          0          0          0          0          0
  oddcycle         :       0.00       0.00          0          0          0          0          0          0          0          0          0          0          0
  rapidlearning    :       0.67       0.00          0          0          0          0          0          0          0          0          0          0          0
  rlt              :       0.00       0.00         10         10          0          0          0          0          0          0          0          0          0
  zerohalf         :       0.60       0.00         19         11          0          0         22         16          2          2          2          0          0
Cutselectors       :   ExecTime  SetupTime      Calls  RootCalls   Selected     Forced   Filtered  RootSelec   RootForc   RootFilt 
  hybrid           :       0.00       0.00         37         11        127          0        760         74          0        313
Pricers            :   ExecTime  SetupTime      Calls       Vars
  problem variables:       0.00          -          0          0
Branching Rules    :   ExecTime  SetupTime   BranchLP  BranchExt   BranchPS    Cutoffs    DomReds       Cuts      Conss   Children
  allfullstrong    :       0.00       0.00          0          0          0          0          0          0          0          0
  cloud            :       0.00       0.00          0          0          0          0          0          0          0          0
  distribution     :       0.00       0.00          0          0          0          0          0          0          0          0
  fullstrong       :       0.00       0.00          0          0          0          0          0          0          0          0
  inference        :       0.00       0.00          0          0          0          0          0          0          0          0
  leastinf         :       0.00       0.00          0          0          0          0          0          0          0          0
  lookahead        :       0.00       0.00          0          0          0          0          0          0          0          0
  mostinf          :       0.00       0.00          0          0          0          0          0          0          0          0
  multaggr         :       0.00       0.00          0          0          0          0          0          0          0          0
  nodereopt        :       0.00       0.00          0          0          0          0          0          0          0          0
  pscost           :       0.00       0.00          0          0          0          0          0          0          0          0
  random           :       0.00       0.00          0          0          0          0          0          0          0          0
  relpscost        :    3401.82       0.00        667          0          0          1       2311          0       2988         72
  vanillafullstrong:       0.00       0.00          0          0          0          0          0          0          0          0
Primal Heuristics  :   ExecTime  SetupTime      Calls      Found       Best
  LP solutions     :       0.00          -          -          0          0
  relax solutions  :       0.00          -          -          0          0
  pseudo solutions :       0.00          -          -          0          0
  strong branching :       0.02          -          -          0          0
  actconsdiving    :       0.00       0.00          0          0          0
  adaptivediving   :       0.00       0.00          0          0          0
  alns             :       6.31       0.00          1          0          0
  bound            :       0.00       0.00          0          0          0
  clique           :      18.89       0.00          1          0          0
  coefdiving       :       0.00       0.00          0          0          0
  completesol      :       0.00       0.00          0          0          0
  conflictdiving   :       4.13       0.00          1          0          0
  crossover        :       0.00       0.00          0          0          0
  dins             :       0.00       0.00          0          0          0
  distributiondivin:       0.04       0.00          0          0          0
  dps              :       0.00       0.00          0          0          0
  dualval          :       0.00       0.00          0          0          0
  farkasdiving     :       0.00       0.00          0          0          0
  feaspump         :       0.00       0.00          0          0          0
  fixandinfer      :       0.00       0.00          0          0          0
  fracdiving       :       0.00       0.00          0          0          0
  gins             :       0.00       0.00          0          0          0
  guideddiving     :       0.00       0.00          0          0          0
  indicator        :       0.00       0.00          0          0          0
  intdiving        :       0.00       0.00          0          0          0
  intshifting      :       0.00       0.00          0          0          0
  linesearchdiving :       0.00       0.00          0          0          0
  localbranching   :       0.00       0.00          0          0          0
  locks            :      30.97       0.00          1          0          0
  lpface           :      24.23       0.00          1          0          0
  mpec             :       0.00       0.00          0          0          0
  multistart       :       0.00       0.00          0          0          0
  mutation         :       0.00       0.00          0          0          0
  nlpdiving        :       0.00       0.00          0          0          0
  objpscostdiving  :       0.00       0.00          0          0          0
  octane           :       0.00       0.00          0          0          0
  ofins            :       0.00       0.00          0          0          0
  oneopt           :       1.52       0.00          4          0          0
  padm             :       0.00       0.00          0          0          0
  proximity        :       0.00       0.00          0          0          0
  pscostdiving     :       0.00       0.00          0          0          0
  randrounding     :      13.65       0.00         12          0          0
  rens             :       3.32       0.00          1          0          0
  reoptsols        :       0.00       0.00          0          0          0
  repair           :       0.00       0.00          0          0          0
  rins             :       0.00       0.00          0          0          0
  rootsoldiving    :       0.00       0.00          0          0          0
  rounding         :       8.48       0.00        363          0          0
  shiftandpropagate:      27.05       0.00          1          0          0
  shifting         :      33.19       0.00         72         63          2
  simplerounding   :       0.00       0.00          0          0          0
  subnlp           :       0.00       0.00          0          0          0
  trivial          :       0.66       0.00          2          0          0
  trivialnegation  :       0.00       0.00          0          0          0
  trustregion      :       0.00       0.00          0          0          0
  trysol           :       0.00       0.00          0          0          0
  twoopt           :       0.00       0.00          0          0          0
  undercover       :       0.00       0.00          0          0          0
  vbounds          :      29.10       0.00          1          0          0
  veclendiving     :       0.00       0.00          0          0          0
  zeroobj          :       0.00       0.00          0          0          0
  zirounding       :       0.84       0.00         36          0          0
  other solutions  :          -          -          -          0          -
LP                 :       Time      Calls Iterations  Iter/call   Iter/sec  Time-0-It Calls-0-It    ItLimit
  primal LP        :      29.80         12          0       0.00       0.00      29.80         12
  dual LP          :     355.07        762       5223       7.22      14.71       7.77         39
  lex dual LP      :       0.00          0          0       0.00          -
  barrier LP       :       0.00          0          0       0.00          -       0.00          0
  resolve instable :       0.00          0          0       0.00          -
  diving/probing LP:     193.83         15         58       3.87       0.30
  strong branching :    1472.53       2603      34594      13.29      23.49          -          -        151
    (at root node) :          -         20       1368      68.40          -
  conflict analysis:    1341.66        633       6221       9.83       4.64
B&B Tree           :
  number of runs   :          1
  nodes            :         73 (36 internal, 37 leaves)
  feasible leaves  :          0
  infeas. leaves   :         32
  objective leaves :          5
  nodes (total)    :         73 (36 internal, 37 leaves)
  nodes left       :          0
  max depth        :         19
  max depth (total):         19
  backtracks       :         11 (15.1%)
  early backtracks :          0 (0.0%)
  nodes exc. ref.  :          0 (0.0%)
  delayed cutoffs  :          0
  repropagations   :         55 (329 domain reductions, 0 cutoffs)
  avg switch length:       4.11
  switching time   :      52.79
Root Node          :
  First LP value   : +3.41000000000000e+02
  First LP Iters   :          2 (0.09 Iter/sec)
  First LP Time    :      23.44
  Final Dual Bound : +3.41000000000000e+02
  Final Root Iters :        342
  Root LP Estimate : +3.41253083747439e+02
Solution           :
  Solutions found  :         63 (2 improvements)
  First Solution   : +3.74000000000000e+02   (in run 1, after 1 nodes, 201.13 seconds, depth 0, found by <shifting>)
  Gap First Sol.   :       9.68 %
  Gap Last Sol.    :       6.45 %
  Primal Bound     : +3.63000000000000e+02   (in run 1, after 24 nodes, 2309.55 seconds, depth 10, found by <shifting>)
  Dual Bound       : +3.63000000000000e+02
  Gap              :       0.00 %
Integrals          :      Total       Avg%
  primal-dual      :   45329.38      10.24
  primal-ref       :          -          - (not evaluated)
  dual-ref         :          -          - (not evaluated)
written solution information to file <results/final_miplib_symretope_if_extended_generating_set_cpx_v802__settings_final_nosym_norestarts__1__mspp16.mps.gz.sol>
@04 1686653815
